NAME : XML50_2173_21
COMMENT : Generated as the XML100 dataset from the CVRPLIB
TYPE : CVRP
DIMENSION : 51
EDGE_WEIGHT_TYPE : EUC_2D
CAPACITY : 137
NODE_COORD_SECTION
1    500  500 
2    337  69  
3    361  432 
4    605  573 
5    570  884 
6    936  93  
7    487  520 
8    474  193 
9    726  48  
10   431  228 
11   704  405 
12   781  872 
13   99   249 
14   773  59  
15   757  270 
16   367  231 
17   870  946 
18   803  511 
19   444  978 
20   161  74  
21   199  601 
22   623  617 
23   405  117 
24   263  384 
25   70   136 
26   13   114 
27   566  232 
28   499  209 
29   756  408 
30   224  691 
31   31   235 
32   437  694 
33   809  362 
34   31   485 
35   550  501 
36   71   259 
37   75   583 
38   712  734 
39   80   182 
40   336  300 
41   977  345 
42   22   915 
43   825  287 
44   111  386 
45   955  549 
46   296  587 
47   971  597 
48   505  825 
49   543  403 
50   101  21  
51   503  696 
DEMAND_SECTION
1    0   
2    5   
3    6   
4    4   
5    8   
6    8   
7    2   
8    6   
9    2   
10   8   
11   10  
12   5   
13   53  
14   5   
15   9   
16   8   
17   5   
18   8   
19   73  
20   6   
21   6   
22   8   
23   5   
24   5   
25   5   
26   88  
27   5   
28   3   
29   52  
30   10  
31   8   
32   2   
33   3   
34   10  
35   10  
36   5   
37   54  
38   4   
39   7   
40   1   
41   3   
42   3   
43   4   
44   6   
45   6   
46   5   
47   2   
48   6   
49   10  
50   4   
51   8   
DEPOT_SECTION
1
-1
EOF
